words_hard_train/5868.qaiger
aag 109 16 0 1 93
2
4
12
14
18
20
32
34
46
48
60
62
74
76
92
190
218
6 3 5
8 2 4
10 7 9
16 12 14
22 19 21
24 18 20
26 23 25
28 16 26
30 29 25
36 33 35
38 32 34
40 37 39
42 31 40
44 43 39
50 47 49
52 46 48
54 51 53
56 45 54
58 57 53
64 61 63
66 60 62
68 65 67
70 59 68
72 71 67
78 75 77
80 74 76
82 79 81
84 73 82
86 85 81
88 10 87
90 89 9
94 90 93
96 72 83
98 97 85
100 98 74
102 17 12
104 17 27
106 105 29
108 106 18
110 103 109
112 30 41
114 113 43
116 114 32
118 110 117
120 44 55
122 121 46
124 122 57
126 118 125
128 58 69
130 129 60
132 130 71
134 126 133
136 100 135
138 119 124
140 139 127
142 141 77
144 140 76
146 102 35
148 147 48
150 149 108
152 146 49
154 151 153
156 117 62
158 155 157
160 159 119
162 116 63
164 160 163
166 145 165
168 143 167
170 127 132
172 171 135
174 173 5
176 168 175
178 172 4
180 177 179
182 136 180
184 91 92
186 183 184
188 95 187
192 189 190
194 137 181
196 194 93
198 101 134
200 180 92
202 198 201
204 197 203
206 184 190
208 204 207
210 89 2
212 86 4
214 210 213
216 209 215
218 193 217
i0 2 y1[6]
i1 1 x2[6]
i2 2 y1[0]
i3 1 x2[0]
i4 2 y1[1]
i5 1 x2[1]
i6 2 y1[2]
i7 1 x2[2]
i8 2 y1[3]
i9 1 x2[3]
i10 2 y1[4]
i11 1 x2[4]
i12 2 y1[5]
i13 1 x2[5]
i14 1 x2[7]
i15 2 y1[7]
o0 bv[0]
c
simplified
  >
    and
      add
        2 y1
        1 x2
      2 y1
    >> 2
      1 x2
