words_hard_train/5868.qaiger.qdimacs
p cnf 109 280
a 2 38 7 10 46 17 24 31 0
e 1 3 4 5 6 8 9 11 12 13 14 15 16 18 19 20 21 22 23 25 26 27 28 29 30 32 33 34 35 36 37 39 40 41 42 43 44 45 47 48 49 50 51 52 53 54 55 56 57 58 59 60 61 62 63 64 65 66 67 68 69 70 71 72 73 74 75 76 77 78 79 80 81 82 83 84 85 86 87 88 89 90 91 92 93 94 95 96 97 98 99 100 101 102 103 104 105 106 107 108 109 0
1 2 3 0
-1 -3 0
-2 -3 0
-1 -2 4 0
1 -4 0
2 -4 0
3 4 5 0
-3 -5 0
-4 -5 0
-6 -7 8 0
6 -8 0
7 -8 0
9 10 11 0
-9 -11 0
-10 -11 0
-9 -10 12 0
9 -12 0
10 -12 0
11 12 13 0
-11 -13 0
-12 -13 0
-8 -13 14 0
8 -14 0
13 -14 0
14 12 15 0
-14 -15 0
-12 -15 0
16 17 18 0
-16 -18 0
-17 -18 0
-16 -17 19 0
16 -19 0
17 -19 0
18 19 20 0
-18 -20 0
-19 -20 0
15 -20 21 0
-15 -21 0
20 -21 0
21 19 22 0
-21 -22 0
-19 -22 0
23 24 25 0
-23 -25 0
-24 -25 0
-23 -24 26 0
23 -26 0
24 -26 0
25 26 27 0
-25 -27 0
-26 -27 0
22 -27 28 0
-22 -28 0
27 -28 0
28 26 29 0
-28 -29 0
-26 -29 0
30 31 32 0
-30 -32 0
-31 -32 0
-30 -31 33 0
30 -33 0
31 -33 0
32 33 34 0
-32 -34 0
-33 -34 0
29 -34 35 0
-29 -35 0
34 -35 0
35 33 36 0
-35 -36 0
-33 -36 0
37 38 39 0
-37 -39 0
-38 -39 0
-37 -38 40 0
37 -40 0
38 -40 0
39 40 41 0
-39 -41 0
-40 -41 0
36 -41 42 0
-36 -42 0
41 -42 0
42 40 43 0
-42 -43 0
-40 -43 0
-5 43 44 0
5 -44 0
-43 -44 0
44 4 45 0
-44 -45 0
-4 -45 0
-45 46 47 0
45 -47 0
-46 -47 0
-36 41 48 0
36 -48 0
-41 -48 0
48 42 49 0
-48 -49 0
-42 -49 0
-49 -37 50 0
49 -50 0
37 -50 0
8 -6 51 0
-8 -51 0
6 -51 0
8 13 52 0
-8 -52 0
-13 -52 0
52 14 53 0
-52 -53 0
-14 -53 0
-53 -9 54 0
53 -54 0
9 -54 0
51 54 55 0
-51 -55 0
-54 -55 0
-15 20 56 0
15 -56 0
-20 -56 0
56 21 57 0
-56 -57 0
-21 -57 0
-57 -16 58 0
57 -58 0
16 -58 0
-55 58 59 0
55 -59 0
-58 -59 0
-22 27 60 0
22 -60 0
-27 -60 0
60 -23 61 0
-60 -61 0
23 -61 0
-61 28 62 0
61 -62 0
-28 -62 0
-59 62 63 0
59 -63 0
-62 -63 0
-29 34 64 0
29 -64 0
-34 -64 0
64 -30 65 0
-64 -65 0
30 -65 0
-65 35 66 0
65 -66 0
-35 -66 0
-63 66 67 0
63 -67 0
-66 -67 0
-50 67 68 0
50 -68 0
-67 -68 0
59 -62 69 0
-59 -69 0
62 -69 0
69 63 70 0
-69 -70 0
-63 -70 0
70 38 71 0
-70 -71 0
-38 -71 0
-70 -38 72 0
70 -72 0
38 -72 0
-51 17 73 0
51 -73 0
-17 -73 0
73 -24 74 0
-73 -74 0
24 -74 0
74 -54 75 0
-74 -75 0
54 -75 0
-73 24 76 0
73 -76 0
-24 -76 0
75 76 77 0
-75 -77 0
-76 -77 0
58 -31 78 0
-58 -78 0
31 -78 0
77 78 79 0
-77 -79 0
-78 -79 0
79 59 80 0
-79 -80 0
-59 -80 0
-58 31 81 0
58 -81 0
-31 -81 0
-80 81 82 0
80 -82 0
-81 -82 0
72 82 83 0
-72 -83 0
-82 -83 0
71 83 84 0
-71 -84 0
-83 -84 0
63 -66 85 0
-63 -85 0
66 -85 0
85 67 86 0
-85 -86 0
-67 -86 0
86 2 87 0
-86 -87 0
-2 -87 0
-84 87 88 0
84 -88 0
-87 -88 0
-86 -2 89 0
86 -89 0
2 -89 0
88 89 90 0
-88 -90 0
-89 -90 0
-68 -90 91 0
68 -91 0
90 -91 0
45 -46 92 0
-45 -92 0
46 -92 0
91 -92 93 0
-91 -93 0
92 -93 0
47 93 94 0
-47 -94 0
-93 -94 0
94 -95 96 0
-94 -96 0
95 -96 0
68 90 97 0
-68 -97 0
-90 -97 0
-97 46 98 0
97 -98 0
-46 -98 0
50 -67 99 0
-50 -99 0
67 -99 0
-90 -46 100 0
90 -100 0
46 -100 0
-99 100 101 0
99 -101 0
-100 -101 0
98 101 102 0
-98 -102 0
-101 -102 0
-92 -95 103 0
92 -103 0
95 -103 0
-102 103 104 0
102 -104 0
-103 -104 0
44 -1 105 0
-44 -105 0
1 -105 0
-43 -2 106 0
43 -106 0
2 -106 0
-105 106 107 0
105 -107 0
-106 -107 0
104 107 108 0
-104 -108 0
-107 -108 0
96 108 109 0
-96 -109 0
-108 -109 0
109 0
